100
128
11
5
33
30
36
34
6
59
10
19
13
56
41
46
31
61
16
35
20
41
57
30
29
17
15
23
50
15
39
13
60
32
55
9
62
1
26
15
28
30
55
20
8
36
62
59
29
48
31
2
46
20
20
37
1
22
19
23
26
52
59
41
39
47
17
23
35
27
4
62
52
39
64
39
40
31
55
25
36
62
30
28
40
9
64
64
54
33
64
64
51
4
46
19
63
37
13
9
64
64